p cnf 147 603
-2 -3 0
-1 -3 0
1 3 0
-3 0
1 -2 0
-2 -23 0
22 -2 0
-2 -44 0
43 -2 0
-2 -65 0
64 -2 0
-2 -86 0
85 -2 0
-2 -107 0
106 -2 0
-1 2 23 44 65 86 107 0
-5 -6 0
-4 -6 0
4 6 0
6 0
-4 0
-8 -9 0
-7 -9 0
7 9 0
9 0
-7 0
-11 -12 0
-10 -12 0
10 12 0
-12 0
10 -11 0
-10 11 0
-14 -15 0
-13 -15 0
13 15 0
15 0
-13 0
-17 -18 0
-16 -18 0
16 18 0
-18 0
16 -17 0
-17 -20 0
19 -17 0
-16 17 20 0
-20 -21 0
-19 -21 0
19 21 0
-21 0
19 -20 0
-20 -17 0
16 -20 0
-19 20 17 0
-23 -24 0
-22 -24 0
22 24 0
-24 0
22 -23 0
-23 -2 0
1 -23 0
-23 -44 0
43 -23 0
-23 -65 0
64 -23 0
-23 -86 0
85 -23 0
-23 -107 0
106 -23 0
-22 23 2 44 65 86 107 0
-26 -27 0
-25 -27 0
25 27 0
27 0
-25 0
-5 -47 -23 0
-5 -47 -29 0
-5 -23 -29 0
5 47 23 0
5 47 29 0
5 23 29 0
-47 -23 -29 0
47 23 29 0
-29 -30 0
-28 -30 0
28 30 0
-30 0
28 -29 0
-28 29 0
-32 -33 0
-31 -33 0
31 33 0
33 0
-31 0
-35 -36 0
-34 -36 0
34 36 0
-36 0
34 -35 0
-35 -56 0
55 -35 0
-35 -77 0
76 -35 0
-35 -98 0
97 -35 0
-34 35 56 77 98 0
-38 -39 0
-37 -39 0
37 39 0
39 0
-37 0
-41 -42 0
-40 -42 0
40 42 0
42 0
-40 0
-20 0
-62 0
-38 0
-44 -45 0
-43 -45 0
43 45 0
-45 0
43 -44 0
-44 -23 0
22 -44 0
-44 -2 0
1 -44 0
-44 -65 0
64 -44 0
-44 -86 0
85 -44 0
-44 -107 0
106 -44 0
-43 44 23 2 65 86 107 0
-47 -48 0
-46 -48 0
46 48 0
48 0
-46 0
-26 0
-68 0
-44 0
-50 0
-50 -51 0
-49 -51 0
49 51 0
51 0
-49 0
-53 -54 0
-52 -54 0
52 54 0
54 0
-52 0
-32 0
-74 0
-50 0
-56 0
-56 -57 0
-55 -57 0
55 57 0
-57 0
55 -56 0
-56 -35 0
34 -56 0
-56 -59 0
58 -56 0
-56 -62 0
61 -56 0
-56 -77 0
76 -56 0
-56 -98 0
97 -56 0
-55 56 35 59 62 77 98 0
-59 -60 0
-58 -60 0
58 60 0
-60 0
58 -59 0
-59 -56 0
55 -59 0
-59 -62 0
61 -59 0
-58 59 56 62 0
-62 -63 0
-61 -63 0
61 63 0
-63 0
61 -62 0
-62 -59 0
58 -62 0
-62 -56 0
55 -62 0
-61 62 59 56 0
-65 -66 0
-64 -66 0
64 66 0
-66 0
64 -65 0
-65 -44 0
43 -65 0
-65 -23 0
22 -65 0
-65 -2 0
1 -65 0
-65 -68 0
67 -65 0
-65 -71 0
70 -65 0
-65 -74 0
73 -65 0
-65 -77 0
76 -65 0
-65 -86 0
85 -65 0
-65 -107 0
106 -65 0
-64 65 44 23 2 68 71 74 77 86 107 0
-68 -69 0
-67 -69 0
67 69 0
-69 0
67 -68 0
-68 -65 0
64 -68 0
-68 -71 0
70 -68 0
-68 -74 0
73 -68 0
-68 -77 0
76 -68 0
-68 -89 0
88 -68 0
-68 -110 0
109 -68 0
-67 68 65 71 74 77 89 110 0
-71 -72 0
-70 -72 0
70 72 0
-72 0
70 -71 0
-71 -68 0
67 -71 0
-71 -65 0
64 -71 0
-71 -74 0
73 -71 0
-71 -77 0
76 -71 0
-70 71 68 65 74 77 0
-74 -75 0
-73 -75 0
73 75 0
-75 0
73 -74 0
-74 -71 0
70 -74 0
-74 -68 0
67 -74 0
-74 -65 0
64 -74 0
-74 -77 0
76 -74 0
-74 -95 0
94 -74 0
-74 -116 0
115 -74 0
-74 -137 0
136 -74 0
-73 74 71 68 65 77 95 116 137 0
-77 -78 0
-76 -78 0
76 78 0
-78 0
76 -77 0
-77 -56 0
55 -77 0
-77 -35 0
34 -77 0
-77 -74 0
73 -77 0
-77 -71 0
70 -77 0
-77 -68 0
67 -77 0
-77 -65 0
64 -77 0
-77 -98 0
97 -77 0
-76 77 56 35 74 71 68 65 98 0
-80 -81 0
-79 -81 0
79 81 0
81 0
-79 0
-59 -101 -77 -83 0
59 101 0
59 77 0
59 83 0
101 77 0
101 83 0
77 83 0
-83 -84 0
-82 -84 0
82 84 0
84 0
-82 0
-86 -87 0
-85 -87 0
85 87 0
-87 0
85 -86 0
-86 -65 0
64 -86 0
-86 -44 0
43 -86 0
-86 -23 0
22 -86 0
-86 -2 0
1 -86 0
-86 -89 0
88 -86 0
-86 -107 0
106 -86 0
-85 86 65 44 23 2 89 107 0
-89 -90 0
-88 -90 0
88 90 0
-90 0
88 -89 0
-89 -68 0
67 -89 0
-89 -86 0
85 -89 0
-89 -110 0
109 -89 0
-88 89 68 86 110 0
-92 -93 0
-91 -93 0
91 93 0
93 0
-91 0
-71 0
-113 0
-89 0
-95 0
-95 -96 0
-94 -96 0
94 96 0
-96 0
94 -95 0
-95 -74 0
73 -95 0
-95 -98 0
97 -95 0
-95 -101 0
100 -95 0
-95 -104 0
103 -95 0
-95 -116 0
115 -95 0
-95 -137 0
136 -95 0
-94 95 74 98 101 104 116 137 0
-98 -99 0
-97 -99 0
97 99 0
-99 0
97 -98 0
-98 -77 0
76 -98 0
-98 -56 0
55 -98 0
-98 -35 0
34 -98 0
-98 -95 0
94 -98 0
-98 -101 0
100 -98 0
-98 -104 0
103 -98 0
-97 98 77 56 35 95 101 104 0
-101 -102 0
-100 -102 0
100 102 0
-102 0
100 -101 0
-101 -98 0
97 -101 0
-101 -95 0
94 -101 0
-101 -104 0
103 -101 0
-100 101 98 95 104 0
-104 -105 0
-103 -105 0
103 105 0
-105 0
103 -104 0
-104 -101 0
100 -104 0
-104 -98 0
97 -104 0
-104 -95 0
94 -104 0
-104 -125 0
124 -104 0
-104 -146 0
145 -104 0
-103 104 101 98 95 125 146 0
-107 -108 0
-106 -108 0
106 108 0
-108 0
106 -107 0
-107 -86 0
85 -107 0
-107 -65 0
64 -107 0
-107 -44 0
43 -107 0
-107 -23 0
22 -107 0
-107 -2 0
1 -107 0
-107 -110 0
109 -107 0
-107 -113 0
112 -107 0
-107 -116 0
115 -107 0
-106 107 86 65 44 23 2 110 113 116 0
-110 -111 0
-109 -111 0
109 111 0
-111 0
109 -110 0
-110 -89 0
88 -110 0
-110 -68 0
67 -110 0
-110 -107 0
106 -110 0
-110 -113 0
112 -110 0
-110 -116 0
115 -110 0
-109 110 89 68 107 113 116 0
-113 -114 0
-112 -114 0
112 114 0
-114 0
112 -113 0
-113 -110 0
109 -113 0
-113 -107 0
106 -113 0
-113 -116 0
115 -113 0
-113 -134 0
133 -113 0
-112 113 110 107 116 134 0
-116 -117 0
-115 -117 0
115 117 0
-117 0
115 -116 0
-116 -95 0
94 -116 0
-116 -74 0
73 -116 0
-116 -113 0
112 -116 0
-116 -110 0
109 -116 0
-116 -107 0
106 -116 0
-116 -137 0
136 -116 0
-115 116 95 74 113 110 107 137 0
-119 -120 0
-118 -120 0
118 120 0
120 0
-118 0
-98 0
-140 0
-116 0
-122 0
-122 -123 0
-121 -123 0
121 123 0
123 0
-121 0
-101 -143 -119 -125 0
101 143 0
101 119 0
101 125 0
143 119 0
143 125 0
119 125 0
-125 -126 0
-124 -126 0
124 126 0
-126 0
124 -125 0
-125 -104 0
103 -125 0
-125 -146 0
145 -125 0
-124 125 104 146 0
-128 -129 0
-127 -129 0
127 129 0
129 0
-127 0
-131 -132 0
-130 -132 0
130 132 0
132 0
-130 0
-134 -135 0
-133 -135 0
133 135 0
-135 0
133 -134 0
-134 -113 0
112 -134 0
-134 -137 0
136 -134 0
-134 -140 0
139 -134 0
-134 -143 0
142 -134 0
-134 -146 0
145 -134 0
-133 134 113 137 140 143 146 0
-137 -138 0
-136 -138 0
136 138 0
-138 0
136 -137 0
-137 -116 0
115 -137 0
-137 -95 0
94 -137 0
-137 -74 0
73 -137 0
-137 -134 0
133 -137 0
-137 -140 0
139 -137 0
-137 -143 0
142 -137 0
-137 -146 0
145 -137 0
-136 137 116 95 74 134 140 143 146 0
-140 -141 0
-139 -141 0
139 141 0
-141 0
139 -140 0
-140 -137 0
136 -140 0
-140 -134 0
133 -140 0
-140 -143 0
142 -140 0
-140 -146 0
145 -140 0
-139 140 137 134 143 146 0
-143 -144 0
-142 -144 0
142 144 0
-144 0
142 -143 0
-143 -140 0
139 -143 0
-143 -137 0
136 -143 0
-143 -134 0
133 -143 0
-143 -146 0
145 -143 0
-142 143 140 137 134 146 0
-146 -147 0
-145 -147 0
145 147 0
-147 0
145 -146 0
-146 -125 0
124 -146 0
-146 -104 0
103 -146 0
-146 -143 0
142 -146 0
-146 -140 0
139 -146 0
-146 -137 0
136 -146 0
-146 -134 0
133 -146 0
-145 146 125 104 143 140 137 134 0


-1 2 3 4 5 -6 7 8 -9 -10 -11 12 13 14 -15 -16 -17 18 -19 20 21 -22 -23 24 25 26 -27 -28 -29 30 31 32 -33 -34 35 36 37 38 -39 40 41 -42 -43 44 45 46 47 -48 49 50 -51 52 53 -54 -55 56 57 -58 -59 60 -61 62 63 -64 65 66 -67 68 69 -70 71 72 -73 74 75 -76 -77 78 79 80 -81 82 83 -84 -85 86 87 -88 89 90 91 92 -93 -94 95 96 -97 98 99 -100 -101 102 -103 104 105 -106 107 108 -109 -110 111 -112 113 114 -115 116 117 118 119 -120 121 122 -123 -124 -125 126 127 128 -129 130 131 -132 -133 134 135 -136 137 138 -139 140 141 -142 -143 144 -145 146 147 0 
